(declare-fun c () String)
(declare-fun g () String)
(declare-fun b () String)
(declare-fun d () String)
(declare-fun a () String)
(declare-fun h () String)
(assert (= (str.++ "f" a) (str.++ c "a")))
(assert (= (str.++ d "ah" b g a) (str.++ d b "cg")))
(assert (= (str.++ "fa" h) g))

(check-sat)
